Version identifier: 22.1.1.0 | 2022-11-28 | 9160aff4d
CPXPARAM_Read_DataCheck                          1
Tried aggregator 2 times.
MIP Presolve eliminated 39536 rows and 502 columns.
MIP Presolve modified 31400 coefficients.
Aggregator did 200 substitutions.
Reduced MIP has 206098 rows, 60100 columns, and 704996 nonzeros.
Reduced MIP has 60100 binaries, 0 generals, 0 SOSs, and 0 indicators.
Presolve time = 0.91 sec. (539.77 ticks)
Probing fixed 2 vars, tightened 0 bounds.
Probing time = 4.12 sec. (838.34 ticks)
Tried aggregator 1 time.
Detecting symmetries...
MIP Presolve eliminated 479 rows and 101 columns.
MIP Presolve modified 314 coefficients.
Reduced MIP has 205619 rows, 59999 columns, and 703340 nonzeros.
Reduced MIP has 59999 binaries, 0 generals, 0 SOSs, and 0 indicators.
Presolve time = 0.83 sec. (490.87 ticks)
Probing time = 0.74 sec. (110.46 ticks)
Clique table members: 385311.
MIP emphasis: balance optimality and feasibility.
MIP search method: dynamic search.
Parallel mode: deterministic, using up to 4 threads.
Root relaxation solution time = 14.80 sec. (4362.66 ticks)

        Nodes                                         Cuts/
   Node  Left     Objective  IInf  Best Integer    Best Bound    ItCnt     Gap

      0     0        3.0000   485                      3.0000    60708         
      0     0        3.0000   381                 ZeroHalf: 4    60763         
      0     0        3.0000   368                    Cuts: 55    60869         
      0     0        3.0000   307                ZeroHalf: 38    61068         
      0     0        3.0000   438               ZeroHalf: 135    61674         
Detecting symmetries...
      0     2        3.0000   316                      3.0000    61674         
Elapsed time = 87.41 sec. (24546.54 ticks, tree = 0.02 MB, solutions = 0)
      2     4        3.0000   296                      3.0000    62341         
      5     4        3.0000   329                      3.0000    62009         
      7     5        3.0000   296                      3.0000    62351         
      9     9        3.0000   274                      3.0000    68668         
     11    11    infeasible                            3.0000    82971         
     12    12        3.0000   294                      3.0000    86619         
     13    13        3.0000   274                      3.0000    87180         
     14    10        3.0417  3213                      3.0000    73312         
     15    15        3.0417  3133                      3.0000    97651         
     17    16        3.0000   266                      3.0000   103336         
Elapsed time = 116.02 sec. (29460.13 ticks, tree = 0.29 MB, solutions = 0)
     26    19    infeasible                            3.0000   106968         
     29    20        3.0278  2730                      3.0000   113208         
     33    20        5.0000   514                      3.0000   114307         
     41    28        5.0000   490                      3.0000   114349         
     53    40        5.0000   184                      3.0000   114775         
     59    16        3.0556  3209                      3.0000   114629         
     70    47        5.0000   717                      3.0000   124860         
     77    62        5.0000   688                      3.0000   128073         
     91    75        5.0000   548                      3.0000   130085         
    106    89        5.0000   364                      3.0000   130628         
Elapsed time = 174.83 sec. (41946.40 ticks, tree = 96.90 MB, solutions = 0)
    118   103        5.0000   262                      3.0000   132934         
    121   106        5.0000   270                      3.0000   134205         
    125   110        5.0139  2546                      3.0000   135289         
    129   114        5.0139  2717                      3.0000   136376         
    130   115        5.0556  2709                      3.0000   137778         
    132   115        5.0278  2912                      3.0000   138960         
    140   123        7.0000   598                      3.0000   139406         
    155   138        7.0000   490                      3.0000   139686         
*   163   129      integral     0        7.0000        3.0000   139868   57.14%
    171   110        3.0000   326        7.0000        3.0000   140618   57.14%
    178   117        3.0000   278        7.0000        3.0000   141803   57.14%
Elapsed time = 232.32 sec. (53622.14 ticks, tree = 138.68 MB, solutions = 1)
    191   120    infeasible              7.0000        3.0000   142515   57.14%
    201   123        5.0000   662        7.0000        3.0000   144033   57.14%
    212   126        3.0000   296        7.0000        3.0000   144924   57.14%
    226   139        5.0000   682        7.0000        3.0000   146364   57.14%
    234   141        3.0000   307        7.0000        3.0000   147343   57.14%
    241   144        5.0000   730        7.0000        3.0000   149180   57.14%
    252   150        5.0000   663        7.0000        3.0000   150419   57.14%
*   262+  141                            5.0000        3.0000            40.00%
    267    62        3.0000   302        5.0000        3.0000   151047   40.00%
    279    66        3.0000   329        5.0000        3.0000   152245   40.00%
    292    71        3.0000   280        5.0000        3.0000   153191   40.00%
Elapsed time = 273.51 sec. (63960.43 ticks, tree = 72.54 MB, solutions = 2)
    302    69        3.0000   280        5.0000        3.0000   154500   40.00%
    312    71        3.0000   282        5.0000        3.0000   155794   40.00%
    314    79        5.0556  2667        5.0000        3.0000   152142   40.00%
    315     6        3.0556  3283        5.0000        3.0000   107595   40.00%
    316    12        3.0694  3792        5.0000        3.0000   112423   40.00%

Performing restart 1

Repeating presolve.
Tried aggregator 2 times.
MIP Presolve eliminated 203938 rows and 59399 columns.
MIP Presolve modified 200 coefficients.
Aggregator did 100 substitutions.
Reduced MIP has 1581 rows, 500 columns, and 4800 nonzeros.
Reduced MIP has 500 binaries, 0 generals, 0 SOSs, and 0 indicators.
Presolve time = 0.16 sec. (137.24 ticks)
Tried aggregator 1 time.
MIP Presolve eliminated 122 rows and 62 columns.
Reduced MIP has 1459 rows, 438 columns, and 4465 nonzeros.
Reduced MIP has 438 binaries, 0 generals, 0 SOSs, and 0 indicators.
Presolve time = 0.01 sec. (4.97 ticks)
Tried aggregator 1 time.
MIP Presolve eliminated 716 rows and 138 columns.
Reduced MIP has 743 rows, 300 columns, and 2600 nonzeros.
Reduced MIP has 300 binaries, 0 generals, 0 SOSs, and 0 indicators.
Presolve time = 0.00 sec. (3.30 ticks)
Tried aggregator 1 time.
Reduced MIP has 743 rows, 300 columns, and 2600 nonzeros.
Reduced MIP has 300 binaries, 0 generals, 0 SOSs, and 0 indicators.
Presolve time = 0.00 sec. (2.08 ticks)
Represolve time = 0.39 sec. (301.42 ticks)
    317     0        3.0000   164        5.0000   ZeroHalf: 1   260330   40.00%
    317     0        3.0000   204        5.0000     Cuts: 104   260466   40.00%
    706   101        3.0000   142        5.0000        3.0000   279804   40.00%
   1601   320        cutoff              5.0000        3.0000   332376   40.00%
*  2018   372      integral     0        3.0000        3.0000   350918    0.00%

Clique cuts applied:  2
Zero-half cuts applied:  21

Root node processing (before b&c):
  Real time             =   86.87 sec. (24218.31 ticks)
Parallel b&c, 4 threads:
  Real time             =  357.36 sec. (101908.05 ticks)
  Sync time (average)   =   24.38 sec.
  Wait time (average)   =    0.00 sec.
                          ------------
Total (root+branch&cut) =  444.23 sec. (126126.36 ticks)
y[0] = 1.0
y[1] = 1.0
y[2] = 1.0
y[3] = 1.0
